(set-info :smt-lib-version 2.7)
(set-logic QF_EIA)
(set-info :source |
Generated by: Florian Frohn
Generator: LoAT
Application: proving unsatisfiability of CHCs
Target solver: SwInE
Time limit: 1.0
Benchmarks generated by the verification tool LoAT to evaluate the SMT solver
SwInE. We extracted all benchmarks with exponentiation that were generated by
LoAT when analyzing the examples from the category LIA-Lin (linear CHCs with
linear integer arithmetic) of the CHC competitions 2022 and 2023, and when
analyzing the examples from the categories "Termination of Integer Transition
Systems" and "Complexity of Integer Transition Systems" of the Termination and
Complexity Competition 2024. From the entire set, we selected those where
* SwInE v0.1.0 or SwInE-Z3 v0.1.2 failed or needed more than 1 second, or
* SwInE-Z3 v0.1.2 failed without phasing, a technique to prevent SwInE from
  computing with huge constants (described here
  https://arxiv.org/abs/2502.04761)
If several selected benchmarks only differed in lines not containing
exponentiation, we kept only one of them. This benchmark is known to be
satisfiable with the slightly different semantics of exponentiation used by the
versions of SwInE mentioned above.
|)
(set-info :license "https://creativecommons.org/licenses/by/4.0/")
(set-info :category "industrial")
(set-info :status unknown)

(declare-fun i1 () Int)
(declare-fun it193 () Int)
(declare-fun it194 () Int)
(declare-fun it132 () Int)
(declare-fun it195 () Int)
(declare-fun it196 () Int)
(declare-fun it197 () Int)
(declare-fun it198 () Int)
(declare-fun it199 () Int)
(declare-fun it301 () Int)
(declare-fun it302 () Int)
(declare-fun it303 () Int)
(declare-fun it304 () Int)
(declare-fun it305 () Int)
(declare-fun it306 () Int)
(declare-fun it307 () Int)
(declare-fun it308 () Int)
(declare-fun it310 () Int)
(declare-fun it311 () Int)
(declare-fun it312 () Int)
(declare-fun it313 () Int)
(declare-fun it314 () Int)
(declare-fun it315 () Int)
(declare-fun it316 () Int)
(declare-fun it324 () Int)
(declare-fun it325 () Int)
(declare-fun it326 () Int)
(declare-fun it327 () Int)
(declare-fun it328 () Int)
(declare-fun it329 () Int)
(declare-fun it330 () Int)
(declare-fun it331 () Int)
(declare-fun it231 () Int)
(declare-fun it340 () Int)
(declare-fun it341 () Int)
(declare-fun it342 () Int)
(declare-fun it343 () Int)
(declare-fun it344 () Int)
(declare-fun it345 () Int)
(declare-fun it346 () Int)
(declare-fun it348 () Int)
(declare-fun it349 () Int)
(declare-fun it350 () Int)
(declare-fun it351 () Int)
(declare-fun it352 () Int)
(declare-fun it353 () Int)
(declare-fun it354 () Int)
(declare-fun it362 () Int)
(declare-fun it363 () Int)
(declare-fun it364 () Int)
(declare-fun it365 () Int)
(declare-fun it366 () Int)
(declare-fun it367 () Int)
(declare-fun it368 () Int)
(declare-fun it369 () Int)
(declare-fun it372 () Int)
(declare-fun it373 () Int)
(declare-fun it374 () Int)
(declare-fun it375 () Int)
(declare-fun it376 () Int)
(declare-fun it377 () Int)
(declare-fun it165 () Int)
(declare-fun it378 () Int)
(declare-fun it166 () Int)
(declare-fun it390 () Int)
(declare-fun it393 () Int)
(declare-fun it394 () Int)
(declare-fun it395 () Int)
(declare-fun it396 () Int)
(declare-fun it397 () Int)
(declare-fun it398 () Int)
(declare-fun it171 () Int)
(declare-fun it172 () Int)
(declare-fun it399 () Int)
(declare-fun it265 () Int)
(assert (= (+ i1 (- 1)) 0))
(assert (= (+ it193 (- 4)) 0))
(assert (= (+ it194 (- 1)) 0))
(assert (= (+ it195 (* it132 (- 1))) 0))
(assert (= (+ it196 (- 1)) 0))
(assert (= (+ it197 (- 1)) 0))
(assert (= (+ it198 (* it132 (- 1))) 0))
(assert (= (+ it199 (- 1)) 0))
(assert (and (>= (+ (* it194 (- 1)) (* it301 (- 1)) it195 1) 0)
     (>= (+ (* it197 (- 1)) (* it301 (- 1)) it198 1) 0)
     (>= (+ it193 (- 4)) 0)
     (>= (+ it301 (- 1)) 0)
     (>= (+ (* it193 (- 1)) 4) 0)))
(assert (= (+ it302 (* it193 (- 1))) 0))
(assert (= (+ (* it194 (- 1)) (* it301 (- 1)) it303) 0))
(assert (= (+ it304 (* it195 (- 1))) 0))
(assert (= (+ it305 (* it196 (- 1))) 0))
(assert (= (+ (* it197 (- 1)) (* it301 (- 1)) it306) 0))
(assert (= (+ it307 (* it198 (- 1))) 0))
(assert (= (+ it308 (* it199 (- 1))) 0))
(assert (and (< (+ it307 (* it306 (- 1))) 0)
     (< (+ it304 (* it303 (- 1))) 0)
     (= (+ it302 (- 4)) 0)))
(assert (= (+ it310 (- 2)) 0))
(assert (= it311 0))
(assert (= (+ (* it304 (- 1)) it312) 0))
(assert (= (+ (* it305 (- 1)) it313) 0))
(assert (= (+ it314 (- 1)) 0))
(assert (= (+ (* it307 (- 1)) it315) 0))
(assert (= (+ (* it308 (- 1)) it316) 0))
(assert (and (>= (+ (* it311 (- 1)) it312 (* it324 (- 1)) 1) 0)
     (>= (+ it310 (- 2)) 0)
     (>= (+ it315 (* it314 (- 1)) (* it324 (- 1)) 1) 0)
     (>= (+ it324 (- 1)) 0)
     (>= (+ (* it310 (- 1)) 2) 0)))
(assert (= (+ (* it310 (- 1)) it325) 0))
(assert (= (+ it326 (* it311 (- 1)) (* it324 (- 1))) 0))
(assert (= (+ it327 (* it312 (- 1))) 0))
(assert (= (+ (+ 0 (* it311 it324 (- 2)))
      (* (** it324 2) (+ 0 (- 1)))
      (+ 0 (* it313 (- 2)))
      (+ 0 (* it328 2))
      (+ 0 it324))
   (+ 0 0)))
(assert (= (+ it329 (* it314 (- 1)) (* it324 (- 1))) 0))
(assert (= (+ (* it315 (- 1)) it330) 0))
(assert (= (+ (+ 0 (* it314 it324 (- 2)))
      (* (** it324 2) (+ 0 (- 1)))
      (+ 0 (* it316 (- 2)))
      (+ 0 (* it331 2))
      (+ 0 it324))
   (+ 0 0)))
(assert (and (>= (+ it231 (- 1)) 0)
     (>= (+ (* it326 (- 1)) it327 (* it231 (- 1)) 1) 0)
     (> (+ it329 (* it330 (- 1))) 0)
     (>= (+ (* it325 (- 1)) 2) 0)
     (>= (+ it325 (- 2)) 0)))
(assert (= (+ it340 (* it325 (- 1))) 0))
(assert (= (+ (* it326 (- 1)) it341 (* it231 (- 1))) 0))
(assert (= (+ (* it327 (- 1)) it342) 0))
(assert (= (+ (+ 0 (* it343 2))
      (* (** it231 2) (+ 0 (- 1)))
      (+ 0 (* it328 (- 2)))
      (+ 0 it231)
      (+ 0 (* it326 it231 (- 2))))
   (+ 0 0)))
(assert (= (+ (* it329 (- 1)) it344) 0))
(assert (= (+ (* it330 (- 1)) it345) 0))
(assert (= (+ it346 (* it331 (- 1))) 0))
(assert (and (= (+ it340 (- 2)) 0)
     (< (+ (* it341 (- 1)) it342) 0)
     (< (+ (* it344 (- 1)) it345) 0)))
(assert (= (+ it348 (- 5)) 0))
(assert (= (+ it349 (- 1)) 0))
(assert (= (+ it350 (* it342 (- 1))) 0))
(assert (= (+ (* it343 (- 1)) it351) 0))
(assert (= (+ it352 (- 1)) 0))
(assert (= (+ it353 (* it345 (- 1))) 0))
(assert (= (+ (* it346 (- 1)) it354) 0))
(assert (and (>= (+ (* it362 (- 1)) it350 (* it349 (- 1)) 1) 0)
     (>= (+ (* it362 (- 1)) it353 (* it352 (- 1)) 1) 0)
     (>= (+ (* it348 (- 1)) 5) 0)
     (>= (+ it362 (- 1)) 0)
     (>= (+ it348 (- 5)) 0)))
(assert (= (+ it363 (* it348 (- 1))) 0))
(assert (= (+ (* it362 (- 1)) it364 (* it349 (- 1))) 0))
(assert (= (+ (* it350 (- 1)) it365) 0))
(assert (= (+ (+ 0 it366) (* (** 2 it362) (+ 0 it351) (+ 0 (- 1))))
   (+ 0 0)))
(assert (= (+ (* it362 (- 1)) it367 (* it352 (- 1))) 0))
(assert (= (+ (* it353 (- 1)) it368) 0))
(assert (= (+ (+ 0 it369) (* (** 2 it362) (+ 0 it354) (+ 0 (- 1))))
   (+ 0 0)))
(assert (and (< (+ (* it364 (- 1)) it365) 0)
     (< (+ (* it367 (- 1)) it368) 0)
     (= (+ it363 (- 5)) 0)))
(assert (= (+ it372 (- 3)) 0))
(assert (= (+ it373 (* it365 (- 1))) 0))
(assert (= (+ (* it366 (- 1)) it374) 0))
(assert (= (+ it375 (* it368 (- 1))) 0))
(assert (= (+ (* it369 (- 1)) it376) 0))
(assert (= (+ (* it165 (- 1)) it377) 0))
(assert (= (+ (* it166 (- 1)) it378) 0))
(assert (and (>= (+ (* it390 (- 1)) it373 1) 0)
     (>= (+ it375 (- 1)) 0)
     (>= it373 0)
     (>= (+ (* it372 (- 1)) 3) 0)
     (>= (+ it372 (- 3)) 0)
     (>= (+ it375 (* it390 (- 1))) 0)
     (>= (+ it390 (- 1)) 0)))
(assert (= (+ (* it372 (- 1)) it393) 0))
(assert (= (+ it390 (* it373 (- 1)) it394) 0))
(assert (= (+ (** it390 2)
      (+ 0 (* it390 (- 1)))
      (+ 0 (* it390 it373 (- 2)))
      (+ 0 (* it374 (- 2)))
      (+ 0 (* it395 2)))
   (+ 0 0)))
(assert (= (+ (* it375 (- 1)) it396 it390) 0))
(assert (= (+ (** it390 2)
      (+ 0 (* it390 (- 1)))
      (+ 0 (* it376 (- 2)))
      (+ 0 (* it375 it390 (- 2)))
      (+ 0 (* it397 2)))
   (+ 0 0)))
(assert (= (+ (* it171 (- 1)) it398) 0))
(assert (= (+ it399 (* it172 (- 1))) 0))
(assert (and (>= (+ (* it393 (- 1)) 3) 0)
     (>= (+ (* it265 (- 1)) it394 1) 0)
     (>= (+ it265 (- 1)) 0)
     (> (+ (* it396 (- 1)) 1) 0)
     (>= it394 0)
     (>= (+ it393 (- 3)) 0)))
(check-sat)
(exit)
